Gurobi Optimizer version 9.1.2 build v9.1.2rc0 (linux64)
Thread count: 36 physical cores, 72 logical processors, using up to 32 threads
Optimize a model with 12 rows, 57 columns and 590 nonzeros
Model fingerprint: 0xf32eec78
Model has 47 quadratic constraints
Coefficient statistics:
  Matrix range     [2e-05, 3e+00]
  QMatrix range    [1e+00, 1e+00]
  QLMatrix range   [1e+00, 1e+00]
  Objective range  [8e-03, 7e-01]
  Bounds range     [1e+00, 1e+00]
  RHS range        [1e+00, 1e+00]
Presolve removed 9 rows and 0 columns

Continuous model is non-convex -- solving as a MIP.

Presolve removed 9 rows and 0 columns
Presolve time: 0.00s
Presolved: 189 rows, 57 columns, 443 nonzeros
Presolved model has 47 bilinear constraint(s)
Variable types: 57 continuous, 0 integer (0 binary)

Root relaxation: objective -1.743721e+00, 44 iterations, 0.00 seconds

    Nodes    |    Current Node    |     Objective Bounds      |     Work
 Expl Unexpl |  Obj  Depth IntInf | Incumbent    BestBd   Gap | It/Node Time

     0     0   -1.74372    0   38          -   -1.74372      -     -    0s
H    0     0                       0.6147548   -1.74372   384%     -    0s
     0     0   -1.64739    0    1    0.61475   -1.64739   368%     -    0s
H    0     0                      -1.6450460   -1.64739  0.14%     -    0s
     0     0     cutoff    0        -1.64505   -1.64505  0.00%     -    0s

Cutting planes:
  RLT: 25
  BQP: 3

Explored 1 nodes (76 simplex iterations) in 0.01 seconds
Thread count was 32 (of 72 available processors)

Solution count 2: -1.64505 0.614755 
No other solutions better than -1.64505

Optimal solution found (tolerance 1.00e-04)
Best objective -1.645045978473e+00, best bound -1.645045978473e+00, gap 0.0000%

User-callback calls 78, time in user-callback 0.00 sec
Gurobi Optimizer version 9.1.2 build v9.1.2rc0 (linux64)
Thread count: 36 physical cores, 72 logical processors, using up to 32 threads
Optimize a model with 60 rows, 312 columns and 16100 nonzeros
Model fingerprint: 0x29115928
Model has 262 quadratic constraints
Coefficient statistics:
  Matrix range     [4e-07, 7e+00]
  QMatrix range    [1e+00, 1e+00]
  QLMatrix range   [1e+00, 1e+00]
  Objective range  [4e-03, 1e+00]
  Bounds range     [1e+00, 1e+00]
  RHS range        [1e+00, 1e+00]
Presolve removed 14 rows and 0 columns

Continuous model is non-convex -- solving as a MIP.

Presolve removed 14 rows and 0 columns
Presolve time: 0.01s
Presolved: 1082 rows, 312 columns, 13758 nonzeros
Presolved model has 262 bilinear constraint(s)
Variable types: 312 continuous, 0 integer (0 binary)

Root relaxation: objective -2.160888e+01, 312 iterations, 0.02 seconds

    Nodes    |    Current Node    |     Objective Bounds      |     Work
 Expl Unexpl |  Obj  Depth IntInf | Incumbent    BestBd   Gap | It/Node Time

     0     0  -21.60888    0  147          -  -21.60888      -     -    0s
     0     0  -20.47014    0   78          -  -20.47014      -     -    0s
     0     0  -20.40894    0   78          -  -20.40894      -     -    0s
     0     0  -20.36876    0   78          -  -20.36876      -     -    0s
     0     0  -20.36801    0   78          -  -20.36801      -     -    0s
     0     0  -20.35047    0   73          -  -20.35047      -     -    0s
     0     0  -20.35028    0   80          -  -20.35028      -     -    0s
     0     0  -20.34926    0   74          -  -20.34926      -     -    0s
     0     0  -20.34909    0   78          -  -20.34909      -     -    0s
     0     0  -20.34871    0   78          -  -20.34871      -     -    0s
     0     0  -20.34836    0   78          -  -20.34836      -     -    0s
     0     0  -20.34809    0   83          -  -20.34809      -     -    0s
     0     0  -20.34738    0   83          -  -20.34738      -     -    0s
     0     2  -20.34738    0   83          -  -20.34738      -     -    0s
* 2123  1927              44     -19.3571774  -19.76587  2.11%  41.1    1s
* 2311  1735              49     -19.3721704  -19.76587  2.03%  39.6    1s
* 2312  1735              49     -19.3721731  -19.76587  2.03%  39.6    1s
* 2740  1890              57     -19.3804210  -19.76587  1.99%  41.3    2s
* 2741  1890              57     -19.3804212  -19.76587  1.99%  41.3    2s
* 4187   749              51     -19.3811127  -19.76587  1.99%  45.8    3s
* 4189   707              52     -19.3811364  -19.76587  1.99%  45.7    3s
* 4190   667              52     -19.3811366  -19.76587  1.99%  45.7    3s
* 4275   628              51     -19.3811367  -19.76587  1.99%  45.6    3s
* 5152   679              59     -19.3832782  -19.76587  1.97%  44.8    3s
* 5153   679              59     -19.3832982  -19.76587  1.97%  44.7    3s
* 5774   957              55     -19.3834686  -19.76587  1.97%  43.5    3s
* 5777   957              55     -19.3834954  -19.76587  1.97%  43.5    3s
* 5941  1023              53     -19.3835368  -19.76587  1.97%  43.1    3s
* 6266  1196              67     -19.3835435  -19.76587  1.97%  42.5    4s
* 6713  1361              53     -19.3922363  -19.76587  1.93%  41.5    4s
* 7140  1526              62     -19.3942845  -19.76587  1.92%  40.9    4s
* 7142  1526              63     -19.3942865  -19.76587  1.92%  40.9    4s
* 7143  1526              63     -19.3942869  -19.76587  1.92%  40.9    4s
* 7196  1581              56     -19.3966817  -19.76587  1.90%  40.9    4s
* 7328  1581              60     -19.3985794  -19.76587  1.89%  40.7    4s
* 7746  1738              74     -19.4037578  -19.76587  1.87%  40.1    4s
  9156  1798  -19.42113   27   17  -19.40376  -19.62869  1.16%  38.8    5s
* 9291  1798              65     -19.4039546  -19.62869  1.16%  38.8    5s
* 9298  1798              65     -19.4043016  -19.62869  1.16%  38.7    5s
* 9300  1798              65     -19.4043029  -19.62869  1.16%  38.7    5s
* 9315  1798              57     -19.4043830  -19.62869  1.16%  38.7    5s
* 9826  1800              70     -19.4061792  -19.61978  1.10%  38.4    5s
*10501  1850              74     -19.4069001  -19.58333  0.91%  37.7    5s
*10502  1850              74     -19.4069241  -19.58333  0.91%  37.7    5s
*10505  1850              75     -19.4069508  -19.58333  0.91%  37.7    5s
*10507  1850              76     -19.4069791  -19.58333  0.91%  37.7    5s
*10846  1850              71     -19.4084724  -19.58333  0.90%  37.2    5s
*11017  1902              69     -19.4240362  -19.58333  0.82%  37.0    5s
*15646  1676              66     -19.4252215  -19.49130  0.34%  34.6    6s
*19974  1688              70     -19.4255401  -19.45936  0.17%  32.6    7s
*21557  1652              73     -19.4255433  -19.45195  0.14%  31.7    7s
*21558  1652              73     -19.4255439  -19.45195  0.14%  31.7    7s
*21559  1652              71     -19.4255647  -19.45195  0.14%  31.7    7s
*22344  1627              78     -19.4255808  -19.44820  0.12%  31.4    7s
*22346  1627              78     -19.4255812  -19.44820  0.12%  31.4    7s
*22347  1627              78     -19.4255837  -19.44820  0.12%  31.4    7s
*22818  1627              76     -19.4256709  -19.44705  0.11%  31.1    7s
*27127  1654              64     -19.4257316  -19.43659  0.06%  28.4    8s
*27147  1654              66     -19.4257423  -19.43659  0.06%  28.4    8s
*27149  1654              67     -19.4257522  -19.43659  0.06%  28.4    8s
*27157  1654              67     -19.4257644  -19.43659  0.06%  28.4    8s
*27158  1654              67     -19.4257780  -19.43659  0.06%  28.4    8s
*29065  1826              75     -19.4259105  -19.43398  0.04%  27.2    9s
*30983  1883              70     -19.4259449  -19.43245  0.03%  26.2    9s
*30985  1883              71     -19.4259472  -19.43245  0.03%  26.2    9s
*30988  1883              70     -19.4259833  -19.43245  0.03%  26.2    9s
*30989  1883              70     -19.4259960  -19.43245  0.03%  26.2    9s
*31616  1883              67     -19.4260586  -19.43245  0.03%  25.9    9s
*31617  1883              67     -19.4260589  -19.43245  0.03%  25.9    9s
*32444  1777              67     -19.4260665  -19.43097  0.03%  25.4    9s
*32613  1777              70     -19.4260684  -19.43089  0.02%  25.3    9s
 35274  1921  -19.42685   51   24  -19.42607  -19.42950  0.02%  24.1   10s

Explored 42195 nodes (908008 simplex iterations) in 10.76 seconds
Thread count was 32 (of 72 available processors)

Solution count 10: -19.4261 -19.4261 -19.4261 ... -19.4258

Optimal solution found (tolerance 1.00e-04)
Best objective -1.942606486304e+01, best bound -1.942759591062e+01, gap 0.0079%

User-callback calls 85509, time in user-callback 0.02 sec



objective value: -19.42606486303805
objective bound: -19.427595910619093
x_opt: [1.0, 0.8965545906208314, 0.0, 0.3494430096064258, 0.0, 0.0, 1.0, 0.0, 0.0, 0.0, 1.0, 0.0, 1.0, 1.0, 0.39178093493688143, 1.0, 0.0, 1.0, 0.0, 0.0, 0.0, 0.2787778451841875, 0.0, 0.5268165992263347, 0.0, 0.7485873459428543, 0.0, 1.0, 0.0, 0.0, 1.0, 1.0, 0.0, 0.5243272193870001, 1.0, 0.8897573931464399, 0.0, 1.0, 0.0, 1.0, 1.0, 0.0, 0.9998536603858925, 0.10591025473273899, 0.053883072178149055, 1.012425268481582e-13, 0.4263955771503212, 0.4018361336602997, 0.2751701605729536, 1.0150247687678975e-13]
GUROBI solution time: 10.759751081466675




